NAME : cvrp-A-U-6-14.1341.tour
COMMENT : Length = 1341
COMMENT : Found by LKH [Keld Helsgaun] Thu May 17 22:42:38 2018
TYPE : TOUR
DIMENSION : 31
TOUR_SECTION
1
21
28
10
5
13
6
7
3
29
18
20
23
19
8
12
2
11
24
22
4
15
9
16
14
25
17
26
27
30
31
-1
EOF
